computational_data/solutions/Reg3_n40_s4.sol
Optimal - objective value 18.00000000
      3 r_3                         1                       1
      5 r_5                         1                       1
     16 r_16                        1                       1
     18 r_18                        1                       1
     23 r_23                        1                       1
     26 r_26                        1                       1
     31 r_31                        1                       1
     32 r_32                        1                       1
     39 r_39                        1                       1
     48 b_8                         1                       1
     60 b_20                        1                       1
     61 b_21                        1                       1
     62 b_22                        1                       1
     65 b_25                        1                       1
     67 b_27                        1                       1
     73 b_33                        1                       1
     74 b_34                        1                       1
     76 b_36                        1                       1
